
Gurobi 12.0.1 (win64, C++) logging started Thu Apr 17 22:27:49 2025

Set parameter TokenServer to value "141.76.38.119"
Set parameter Threads to value 8
Set parameter LazyConstraints to value 1
Set parameter PreCrush to value 1
Set parameter Seed to value 0
Set parameter Cuts to value -1
Set parameter TimeLimit to value 28800
Set parameter NumericFocus to value 0
Set parameter SolutionLimit to value 10000
Gurobi Optimizer version 12.0.1 build v12.0.1rc0 (win64 - Windows Server 2022.0 (20348.2))

CPU model: AMD EPYC 7513 32-Core Processor, instruction set [SSE2|AVX|AVX2]
Thread count: 16 physical cores, 16 logical processors, using up to 8 threads

Non-default parameters:
SolutionLimit  10000
TimeLimit  28800
PreCrush  1
Threads  8
LazyConstraints  1

Optimize a model with 137 rows, 256 columns and 720 nonzeros
Model fingerprint: 0xe6f92a34
Variable types: 0 continuous, 256 integer (256 binary)
Coefficient statistics:
  Matrix range     [1e+00, 1e+00]
  Objective range  [8e+00, 6e+01]
  Bounds range     [1e+00, 1e+00]
  RHS range        [1e+00, 4e+00]

User MIP start produced solution with objective 333.464 (0.00s)
Loaded user MIP start with objective 333.464

Presolve removed 5 rows and 26 columns
Presolve time: 0.00s
Presolved: 132 rows, 230 columns, 660 nonzeros
Variable types: 0 continuous, 230 integer (230 binary)

Root relaxation: objective 2.487960e+02, 63 iterations, 0.00 seconds (0.00 work units)

    Nodes    |    Current Node    |     Objective Bounds      |     Work
 Expl Unexpl |  Obj  Depth IntInf | Incumbent    BestBd   Gap | It/Node Time

     0     0  248.79604    0    -  333.46418  248.79604  25.4%     -    0s
     0     0  250.13267    0   12  333.46418  250.13267  25.0%     -    0s
     0     0  250.65664    0    -  333.46418  250.65664  24.8%     -    0s
     0     0  255.91733    0   30  333.46418  255.91733  23.3%     -    0s
     0     0  257.48490    0    -  333.46418  257.48490  22.8%     -    0s
     0     0  263.75365    0    -  333.46418  263.75365  20.9%     -    0s
     0     0  263.91185    0    -  333.46418  263.91185  20.9%     -    0s
     0     0  264.75097    0    -  333.46418  264.75097  20.6%     -    0s
     0     0  266.23188    0   30  333.46418  266.23188  20.2%     -    0s
     0     0  266.61458    0   34  333.46418  266.61458  20.0%     -    0s
     0     2  270.92715    0   49  333.46418  270.92715  18.8%     -    1s
   136   149  302.44759   14   30  333.46418  279.30768  16.2%  19.4    5s
H  175   176                     299.0492427  279.30768  6.60%  19.1    5s
H  474   253                     298.7019556  283.49846  5.09%  18.7    6s
* 1183   236              14     297.6508751  290.48433  2.41%  17.2    7s

Cutting planes:
  Gomory: 1
  Lazy constraints: 1892

Explored 1631 nodes (25293 simplex iterations) in 8.13 seconds (1.60 work units)
Thread count was 8 (of 16 available processors)

Solution count 4: 297.651 298.702 299.049 333.464 

Optimal solution found (tolerance 1.00e-04)
Best objective 2.976508750726e+02, best bound 2.976508750726e+02, gap 0.0000%

User-callback calls 3603, time in user-callback 6.66 sec
### START EXACT APPROACH ###
ProblemVariant: 3
### START PREPROCESSING ###
## Start infeasible path procedure ## 
Deleted arcs: 10
Infeasible tail paths: 0
Infeasible 2-node combinations: 5
## Start extended infeasible path procedure ##
Deleted arcs: 10
Infeasible tail paths: 0
Infeasible 2-node combinations: 5
## Start start solution procedure ##
Start solution with 4 Vehicles and total costs 333.464 in 1.2452 s.
### END PREPROCESSING ###
Route 0 0-1-8-3-2-0 : weight util 0.844444 | volume util 0.427467 | feasible with packing heuristic | feasible with CP model
Route 1 0-11-0 : weight util 0.211111 | volume util 0.278067 | feasible with packing heuristic | feasible with CP model
Route 2 0-12-5-9-10-15-4-0 : weight util 0.944444 | volume util 0.653978 | infeasible with packing heuristic | feasible with CP model
Route 3 0-13-14-7-6-0 : weight util 0.866667 | volume util 0.782178 | infeasible with packing heuristic | feasible with CP model
